experiment/data/hgs-res/Vrp-Set-M-n151/Vrp-Set-M-n151-hgs/0.hgs1.vrp
NAME : 0
COMMENT : CVRP Instance
TYPE : CVRP
DIMENSION : 151
EDGE_WEIGHT_TYPE : EUC_2D
CAPACITY : 200
NODE_COORD_SECTION
1	35.0	35.0
2	41.0	49.0
3	35.0	17.0
4	55.0	45.0
5	55.0	20.0
6	15.0	30.0
7	25.0	30.0
8	20.0	50.0
9	10.0	43.0
10	55.0	60.0
11	30.0	60.0
12	20.0	65.0
13	50.0	35.0
14	30.0	25.0
15	15.0	10.0
16	30.0	5.0
17	10.0	20.0
18	5.0	30.0
19	20.0	40.0
20	15.0	60.0
21	45.0	65.0
22	45.0	20.0
23	45.0	10.0
24	55.0	5.0
25	65.0	35.0
26	65.0	20.0
27	45.0	30.0
28	35.0	40.0
29	41.0	37.0
30	64.0	42.0
31	40.0	60.0
32	31.0	52.0
33	35.0	69.0
34	53.0	52.0
35	65.0	55.0
36	63.0	65.0
37	2.0	60.0
38	20.0	20.0
39	5.0	5.0
40	60.0	12.0
41	40.0	25.0
42	42.0	7.0
43	24.0	12.0
44	23.0	3.0
45	11.0	14.0
46	6.0	38.0
47	2.0	48.0
48	8.0	56.0
49	13.0	52.0
50	6.0	68.0
51	47.0	47.0
52	49.0	58.0
53	27.0	43.0
54	37.0	31.0
55	57.0	29.0
56	63.0	23.0
57	53.0	12.0
58	32.0	12.0
59	36.0	26.0
60	21.0	24.0
61	17.0	34.0
62	12.0	24.0
63	24.0	58.0
64	27.0	69.0
65	15.0	77.0
66	62.0	77.0
67	49.0	73.0
68	67.0	5.0
69	56.0	39.0
70	37.0	47.0
71	37.0	56.0
72	57.0	68.0
73	47.0	16.0
74	44.0	17.0
75	46.0	13.0
76	49.0	11.0
77	49.0	42.0
78	53.0	43.0
79	61.0	52.0
80	57.0	48.0
81	56.0	37.0
82	55.0	54.0
83	15.0	47.0
84	14.0	37.0
85	11.0	31.0
86	16.0	22.0
87	4.0	18.0
88	28.0	18.0
89	26.0	52.0
90	26.0	35.0
91	31.0	67.0
92	15.0	19.0
93	22.0	22.0
94	18.0	24.0
95	26.0	27.0
96	25.0	24.0
97	22.0	27.0
98	25.0	21.0
99	19.0	21.0
100	20.0	26.0
101	18.0	18.0
102	37.0	52.0
103	49.0	49.0
104	52.0	64.0
105	20.0	26.0
106	40.0	30.0
107	21.0	47.0
108	17.0	63.0
109	31.0	62.0
110	52.0	33.0
111	51.0	21.0
112	42.0	41.0
113	31.0	32.0
114	5.0	25.0
115	12.0	42.0
116	36.0	16.0
117	52.0	41.0
118	27.0	23.0
119	17.0	33.0
120	13.0	13.0
121	57.0	58.0
122	62.0	42.0
123	42.0	57.0
124	16.0	57.0
125	8.0	52.0
126	7.0	38.0
127	27.0	68.0
128	30.0	48.0
129	43.0	67.0
130	58.0	48.0
131	58.0	27.0
132	37.0	69.0
133	38.0	46.0
134	46.0	10.0
135	61.0	33.0
136	62.0	63.0
137	63.0	69.0
138	32.0	22.0
139	45.0	35.0
140	59.0	15.0
141	5.0	6.0
142	10.0	17.0
143	21.0	10.0
144	5.0	64.0
145	30.0	15.0
146	39.0	10.0
147	32.0	39.0
148	25.0	32.0
149	25.0	55.0
150	48.0	28.0
151	56.0	37.0
DEMAND_SECTION
1	0
2	10
3	7
4	13
5	19
6	26
7	3
8	5
9	9
10	16
11	16
12	12
13	19
14	23
15	20
16	8
17	19
18	2
19	12
20	17
21	9
22	11
23	18
24	29
25	3
26	6
27	17
28	16
29	16
30	9
31	21
32	27
33	23
34	11
35	14
36	8
37	5
38	8
39	16
40	31
41	9
42	5
43	5
44	7
45	18
46	16
47	1
48	27
49	36
50	30
51	13
52	10
53	9
54	14
55	18
56	2
57	6
58	7
59	18
60	28
61	3
62	13
63	19
64	10
65	9
66	20
67	25
68	25
69	36
70	6
71	5
72	15
73	25
74	9
75	8
76	18
77	13
78	14
79	3
80	23
81	6
82	26
83	16
84	11
85	7
86	41
87	35
88	26
89	9
90	15
91	3
92	1
93	2
94	22
95	27
96	20
97	11
98	12
99	10
100	9
101	17
102	7
103	30
104	16
105	9
106	21
107	15
108	19
109	23
110	11
111	5
112	19
113	29
114	23
115	21
116	10
117	15
118	3
119	41
120	9
121	28
122	8
123	8
124	16
125	10
126	28
127	7
128	15
129	14
130	6
131	19
132	11
133	12
134	23
135	26
136	17
137	6
138	9
139	15
140	14
141	7
142	27
143	13
144	11
145	16
146	10
147	5
148	25
149	17
150	18
151	10
DEPOT_SECTION
1
-1
EOF
