experiment/data/hgs-res/Vrp-Set-M-n151/Vrp-Set-M-n151-hgs/0.hgs1.tour
Route #1: 94 59 93 85 91 100 37 98 92 95 13
Route #2: 147 5 84 17 113 86 140 38 43 15 57 144 58
Route #3: 117 97 87 42 142 14 119 44 141 16 61 104 99 96 6
Route #4: 105 53 112
Route #5: 40 21 73 72 74 75 56 23 133 22 41 145 115 2 137
Route #6: 138 109 54 130 55 25 67 39 139 4 110 149 26
Route #7: 28 76 116 77 3 121 29 24 134 80 150 68 12
Route #8: 132 1 122 51 103 9 120 81 33 102 50 111
Route #9: 79 129 78 34 135 35 136 65 71 66 128 20 30 70 101 69
Route #10: 27 31 10 108 131 32 90 63 126 62 148 88 127
Route #11: 146 7 123 19 107 11 64 49 143 36 47 124 46 114 18
Route #12: 89 118 60 83 125 45 8 48 82 106 52
Cost 1028.42
